NAME: instance_2879
TYPE: TSP
DIMENSION: 20
EDGE_WEIGHT_TYPE: EUC_2D
NODE_COORD_SECTION
0 41.06 78.04
1 64.86 97.10
2 73.94 93.99
3 1.02 39.63
4 24.65 99.78
5 43.35 17.37
6 7.41 88.99
7 9.67 3.81
8 16.97 9.34
9 38.65 39.37
10 84.79 40.05
11 52.71 69.71
12 88.07 16.96
13 80.98 60.86
14 7.85 55.49
15 68.69 36.43
16 81.84 24.29
17 83.68 67.30
18 14.74 4.87
19 94.53 16.89
EOF
